unsat
(:cnf-encoding-aux-vars   118
 :eliminated-applications 3
 :eliminated-vars         100
 :max-memory              19.48
 :memory                  18.72
 :nlsat-conflicts         2
 :nlsat-decisions         3
 :nlsat-learned-added     1
 :nlsat-propagations      8
 :num-allocs              32699
 :rlimit-count            98508
 :time                    0.04
 :total-time              0.06)
